data;

param num_top:=4;

#nodes and edges of the physical network
param n := 10;

set E := (1,2) (1,3) (1,7) (2,4) (2,7) (3,5) (4,8) (5,6) (5,7) (6,7) (6,9) (7,8) (7,9) (8,10) (9,10) ;

#nodes and edges of the virtual networks
set Nl[1] := 9 10 2 4 3 ;
set Nl[2] := 5 3 2 4 6 ;
set Nl[3] := 7 2 4 8 10 ;
set Nl[4] := 10 6 4 7 2 ;

set El[1] := (9,10) (2,10) (2,4) (3,4) (3,9) (4,9) (2,9) (2,3) (3,10) (4,10) ;
set El[2] := (3,5) (2,3) (2,4) (4,6) (5,6) (3,4) (4,5) (2,5) (3,6) (2,6) ;
set El[3] := (2,7) (2,4) (4,8) (8,10) (7,10) (2,10) (4,10) (7,8) (4,7) (2,8) ;
set El[4] := (6,10) (4,6) (4,7) (2,7) (2,10) (4,10) (2,6) (2,4) (6,7) (7,10) ;
